Name:		CBMix2
Optimal value:	-1
#Vehicles:	-1
Capacity:	1578
Depot Node:	1
#Nodes:		68
#Edges:		0
#Arcs:		246
#Required N:	36
#Required E:	0
#Required A:	149

ReN.	DEMAND	S. COST
N6	242	242
N7	170	170
N8	169	169
N9	394	394
N10	372	372
N11	237	237
N12	353	353
N13	404	404
N16	98	98
N19	257	257
N23	142	142
N27	229	229
N28	383	383
N29	231	231
N30	445	445
N36	340	340
N37	340	340
N39	271	271
N42	439	439
N43	151	151
N46	190	190
N48	61	61
N49	452	452
N50	449	449
N51	364	364
N56	261	261
N57	82	82
N58	264	264
N59	452	452
N60	447	447
N61	117	117
N62	100	100
N63	469	469
N64	335	335
N67	146	146
N68	183	183

ReE.	From N.	To N.	T. COST	DEMAND	S. COST

EDGE	FROM N.	TO N.	T. COST

ReA.	FROM N.	TO N.	T. COST	DEMAND	S. COST
A1	1	10	40	383	423
A2	2	1	38	41	79
A3	2	11	39	296	335
A4	3	2	39	268	307
A5	4	13	36	66	102
A6	5	4	18	366	384
A7	5	6	19	346	365
A8	5	14	34	231	265
A9	6	15	39	164	203
A10	7	6	19	227	246
A11	7	8	18	108	126
A12	7	16	39	295	334
A13	8	9	19	393	412
A14	8	17	38	241	279
A15	9	8	19	295	314
A16	10	1	40	242	282
A17	10	11	37	251	288
A18	11	2	39	121	160
A19	11	10	37	388	425
A20	12	19	18	321	339
A21	13	4	36	179	215
A22	13	12	20	164	184
A23	13	14	19	64	83
A24	14	21	18	21	39
A25	15	6	39	124	163
A26	15	14	20	232	252
A27	15	16	18	377	395
A28	16	7	39	251	290
A29	16	17	19	28	47
A30	16	23	21	102	123
A31	17	8	38	80	118
A32	17	16	19	358	377
A33	17	18	18	156	174
A34	18	17	18	65	83
A35	18	24	26	303	329
A36	18	25	21	74	95
A37	19	28	20	289	309
A38	20	21	20	296	316
A39	20	29	14	317	331
A40	21	14	18	64	82
A41	21	22	20	76	96
A42	21	30	20	331	351
A43	22	31	19	83	102
A44	23	32	23	49	72
A45	24	16	33	82	115
A46	24	17	24	290	314
A47	24	23	20	344	364
A48	24	25	21	293	314
A49	24	32	27	398	425
A50	24	33	14	331	345
A51	24	34	24	270	294
A52	25	18	21	383	404
A53	25	24	21	168	189
A54	26	10	41	60	101
A55	26	27	33	314	347
A56	26	35	24	134	158
A57	27	11	37	236	273
A58	27	28	40	351	391
A59	27	37	21	213	234
A60	28	29	19	48	67
A61	28	38	16	61	77
A62	28	39	25	55	80
A63	29	20	14	256	270
A64	29	28	19	296	315
A65	29	30	21	78	99
A66	30	21	20	236	256
A67	30	51	53	281	334
A68	31	30	15	220	235
A69	33	32	19	149	168
A70	33	34	21	286	307
A71	34	24	24	284	308
A72	34	25	15	389	404
A73	34	43	17	234	251
A74	35	26	24	126	150
A75	35	36	23	61	84
A76	35	44	18	38	56
A77	36	27	29	364	393
A78	36	35	23	338	361
A79	36	37	17	269	286
A80	36	44	28	346	374
A81	37	27	21	254	275
A82	37	36	17	70	87
A83	38	39	21	242	263
A84	38	47	21	224	245
A85	39	29	21	344	365
A86	39	40	21	247	268
A87	39	48	20	246	266
A88	39	49	27	291	318
A89	41	32	17	140	157
A90	41	42	19	190	209
A91	42	33	22	314	336
A92	42	41	19	236	255
A93	42	43	20	12	32
A94	43	53	22	262	284
A95	44	35	18	372	390
A96	44	45	19	226	245
A97	45	46	20	300	320
A98	46	45	20	76	96
A99	46	61	40	227	267
A100	47	38	21	31	52
A101	47	46	37	294	331
A102	47	48	19	66	85
A103	48	39	20	264	284
A104	48	47	19	242	261
A105	48	49	17	259	276
A106	48	63	40	354	394
A107	49	39	27	322	349
A108	49	40	17	43	60
A109	49	50	22	317	339
A110	50	49	22	190	212
A111	50	55	14	371	385
A112	51	41	17	102	119
A113	51	52	19	48	67
A114	51	56	20	65	85
A115	52	42	23	104	127
A116	52	51	19	340	359
A117	52	53	18	27	45
A118	53	43	22	273	295
A119	54	49	18	235	253
A120	54	55	23	47	70
A121	54	64	18	58	76
A122	55	54	23	128	151
A123	55	56	17	280	297
A124	55	65	21	92	113
A125	56	51	20	222	242
A126	56	55	17	271	288
A127	56	66	16	72	88
A128	57	56	19	177	196
A129	58	57	19	28	47
A130	58	68	16	294	310
A131	59	60	21	150	171
A132	60	45	41	128	169
A133	60	59	21	105	126
A134	61	60	20	40	60
A135	61	62	39	383	422
A136	62	61	39	59	98
A137	62	63	18	205	223
A138	63	62	18	52	70
A139	64	54	18	209	227
A140	64	63	18	397	415
A141	64	65	20	369	389
A142	65	55	21	21	42
A143	65	66	18	23	41
A144	66	56	16	237	253
A145	66	65	18	65	83
A146	66	67	23	59	82
A147	67	57	19	296	315
A148	67	66	23	82	105
A149	67	68	17	184	201

ARC	FROM N.	TO N.	T. COST
NrA1	1	2	38
NrA2	2	3	39
NrA3	3	4	17
NrA4	3	12	39
NrA5	4	3	17
NrA6	4	5	18
NrA7	6	5	19
NrA8	6	7	19
NrA9	8	7	18
NrA10	9	18	38
NrA11	10	26	41
NrA12	11	12	36
NrA13	11	27	37
NrA14	12	3	39
NrA15	12	11	36
NrA16	12	13	20
NrA17	13	20	25
NrA18	14	5	34
NrA19	14	13	19
NrA20	14	15	20
NrA21	15	22	21
NrA22	16	15	18
NrA23	16	24	33
NrA24	17	24	24
NrA25	18	9	38
NrA26	19	12	18
NrA27	19	20	21
NrA28	20	13	25
NrA29	20	19	21
NrA30	21	20	20
NrA31	22	15	21
NrA32	22	21	20
NrA33	22	23	18
NrA34	23	16	21
NrA35	23	22	18
NrA36	23	24	20
NrA37	24	18	26
NrA38	25	34	15
NrA39	27	26	33
NrA40	27	36	29
NrA41	28	19	20
NrA42	28	27	40
NrA43	29	39	21
NrA44	30	29	21
NrA45	30	31	15
NrA46	30	40	23
NrA47	31	22	19
NrA48	31	32	20
NrA49	32	23	23
NrA50	32	24	27
NrA51	32	31	20
NrA52	32	33	19
NrA53	32	41	17
NrA54	33	24	14
NrA55	33	42	22
NrA56	34	33	21
NrA57	37	46	19
NrA58	38	28	16
NrA59	39	28	25
NrA60	39	38	21
NrA61	40	30	23
NrA62	40	39	21
NrA63	40	49	17
NrA64	41	51	17
NrA65	42	52	23
NrA66	43	34	17
NrA67	43	42	20
NrA68	44	36	28
NrA69	44	59	39
NrA70	45	44	19
NrA71	45	60	41
NrA72	46	37	19
NrA73	46	47	37
NrA74	47	62	33
NrA75	49	48	17
NrA76	49	54	18
NrA77	50	51	18
NrA78	51	30	53
NrA79	51	50	18
NrA80	52	57	17
NrA81	53	52	18
NrA82	53	58	20
NrA83	55	50	14
NrA84	56	57	19
NrA85	57	52	17
NrA86	57	58	19
NrA87	57	67	19
NrA88	58	53	20
NrA89	59	44	39
NrA90	60	61	20
NrA91	61	46	40
NrA92	62	47	33
NrA93	63	48	40
NrA94	63	64	18
NrA95	65	64	20
NrA96	68	58	16
NrA97	68	67	17

